Read MPS format model from file dat/rmp/DER_96_2048_10.mps
Reading time = 0.14 seconds
: 2144 rows, 4896 columns, 400204 nonzeros
Gurobi Optimizer version 9.0.0 build v9.0.0rc2 (linux64)
Optimize a model with 2144 rows, 4896 columns and 400204 nonzeros
Model fingerprint: 0xbab975a9
Coefficient statistics:
  Matrix range     [2e-04, 1e+01]
  Objective range  [8e-01, 1e+03]
  Bounds range     [1e+04, 1e+04]
  RHS range        [1e+00, 1e+00]
Ordering time: 0.00s

Barrier statistics:
 AA' NZ     : 1.865e+05
 Factor NZ  : 2.102e+05 (roughly 5 MBytes of memory)
 Factor Ops : 2.209e+07 (less than 1 second per iteration)
 Threads    : 1

                  Objective                Residual
Iter       Primal          Dual         Primal    Dual     Compl     Time
   0   1.00672781e+09 -2.22564094e+08  1.15e+06 3.14e-02  1.14e+06     0s
   1   4.45244333e+07 -4.15654447e+07  3.81e+04 3.64e-12  4.63e+04     0s
   2   5.47888594e+06 -8.59445744e+06  4.08e+03 5.46e-12  5.96e+03     0s
   3   6.33260506e+05 -2.57040476e+06  4.50e+02 3.64e-12  8.31e+02     0s
   4   3.19154569e+04 -4.70050231e+05  1.08e+01 3.64e-12  1.02e+02     0s
   5   1.47043814e+04  1.29424136e+04  7.54e-11 2.73e-12  3.53e-01     0s
   6   1.46022893e+04  1.39236717e+04  6.32e-11 1.82e-12  1.36e-01     0s
   7   1.45412836e+04  1.43776025e+04  4.22e-11 1.82e-12  3.28e-02     0s
   8   1.45215754e+04  1.44157046e+04  5.59e-11 1.82e-12  2.12e-02     0s
   9   1.45003340e+04  1.44394142e+04  1.60e-10 3.64e-12  1.22e-02     0s
  10   1.44856839e+04  1.44535566e+04  1.90e-10 1.82e-12  6.44e-03     0s
  11   1.44790456e+04  1.44589285e+04  1.65e-10 1.82e-12  4.03e-03     0s
  12   1.44719534e+04  1.44629806e+04  2.30e-10 1.82e-12  1.80e-03     0s
  13   1.44706527e+04  1.44645742e+04  5.12e-10 1.82e-12  1.22e-03     1s
  14   1.44687056e+04  1.44653201e+04  1.36e-09 1.82e-12  6.78e-04     1s
  15   1.44675838e+04  1.44657886e+04  1.50e-09 3.64e-12  3.60e-04     1s
  16   1.44669743e+04  1.44660421e+04  1.95e-09 3.64e-12  1.87e-04     1s
  17   1.44663565e+04  1.44661967e+04  4.61e-09 3.64e-12  3.20e-05     1s
  18   1.44662563e+04  1.44662475e+04  2.88e-09 1.82e-12  1.77e-06     1s
  19   1.44662502e+04  1.44662495e+04  1.26e-08 2.73e-12  1.45e-07     1s
  20   1.44662498e+04  1.44662497e+04  2.09e-07 1.82e-12  1.63e-08     1s
  21   1.44662497e+04  1.44662497e+04  3.31e-07 5.46e-12  6.09e-10     1s

Barrier solved model in 21 iterations and 0.76 seconds
Optimal objective 1.44662497e+04

Solve time: 0.762782522
Barrier iterations: 21
